100
128
52
57
15
15
40
34
53
52
32
1
15
4
4
23
28
12
18
23
13
2
26
16
10
5
56
11
8
5
8
6
48
6
52
48
28
14
32
20
30
25
46
54
16
11
2
9
10
11
19
11
13
13
10
46
39
40
9
11
11
46
14
14
63
34
15
23
18
16
24
25
4
36
2
16
26
16
37
25
3
38
17
24
15
32
14
39
38
35
44
58
60
33
46
34
34
64
17
31
25
63